Version identifier: 12.10.0.0 | 2019-11-26 | 843d4de
CPXPARAM_WorkMem                                 16384
CPXPARAM_MIP_Limits_TreeMemory                   24576
Tried aggregator 2 times.
Aggregator did 40 substitutions.
Reduced MIP has 225 rows, 300 columns, and 1110 nonzeros.
Reduced MIP has 300 binaries, 0 generals, 0 SOSs, and 0 indicators.
Presolve time = 0,00 sec. (1,04 ticks)
Found incumbent of value 710,000000 after 0,00 sec. (1,79 ticks)
Probing time = 0,00 sec. (0,38 ticks)
Tried aggregator 1 time.
Detecting symmetries...
MIP Presolve eliminated 50 rows and 0 columns.
MIP Presolve added 100 rows and 0 columns.
Reduced MIP has 275 rows, 300 columns, and 1160 nonzeros.
Reduced MIP has 300 binaries, 0 generals, 0 SOSs, and 0 indicators.
Presolve time = 0,00 sec. (1,32 ticks)
Probing time = 0,00 sec. (0,37 ticks)
Clique table members: 730.
MIP emphasis: balance optimality and feasibility.
MIP search method: dynamic search.
Parallel mode: deterministic, using up to 16 threads.
Root relaxation solution time = 0,00 sec. (1,02 ticks)

        Nodes                                         Cuts/
   Node  Left     Objective  IInf  Best Integer    Best Bound    ItCnt     Gap

*     0+    0                          710,0000        0,0000           100,00%
*     0+    0                          298,0000        0,0000           100,00%
*     0+    0                          295,0000        0,0000           100,00%
      0     0      142,0000   113      295,0000      142,0000      119   51,86%
      0     0      142,0000   113      295,0000     Cuts: 168      183   51,86%
      0     0      142,0000   113      295,0000     Cuts: 151      261   51,86%
      0     0      142,0000   113      295,0000     Cuts: 168      346   51,86%
*     0+    0                          283,0000      142,0000            49,82%
      0     2      142,0000   150      283,0000      142,0000      346   49,82%
Elapsed time = 0,10 sec. (49,26 ticks, tree = 0,02 MB, solutions = 4)
*  3075+ 1994                          282,0000      184,7755            34,48%
*  3532+ 2475                          277,0000      191,5000            30,87%
   3532  2477      228,2875   160      277,0000      191,5000    75411   30,87%

Performing restart 1

Repeating presolve.
Tried aggregator 1 time.
Reduced MIP has 275 rows, 300 columns, and 1160 nonzeros.
Reduced MIP has 300 binaries, 0 generals, 0 SOSs, and 0 indicators.
Presolve time = 0,00 sec. (0,67 ticks)
Tried aggregator 1 time.
Reduced MIP has 275 rows, 300 columns, and 1160 nonzeros.
Reduced MIP has 300 binaries, 0 generals, 0 SOSs, and 0 indicators.
Presolve time = 0,00 sec. (0,92 ticks)
Represolve time = 0,01 sec. (4,86 ticks)
   4629     0      142,6760   180      277,0000       Cuts: 4   120915   30,08%
   4629     0      145,0512   180      277,0000       Cuts: 8   120953   30,08%
   4629     0      146,2724   180      277,0000      Fract: 7   121054   30,08%
   4629     0      147,6358   180      277,0000       Cuts: 5   121136   30,08%
   4629     2      147,6358   300      277,0000      193,6667   121136   30,08%
   4639     7      154,9489   273      277,0000      193,6667   121844   30,08%
   5721   728      207,4546   195      277,0000      193,6667   167170   30,08%
   7421  2133      265,1650   128      277,0000      193,6667   260405   30,08%
   9038  3518      246,5307   124      277,0000      193,6667   334590   30,08%

Performing restart 2

Repeating presolve.
Tried aggregator 1 time.
Reduced MIP has 275 rows, 300 columns, and 1160 nonzeros.
Reduced MIP has 300 binaries, 0 generals, 0 SOSs, and 0 indicators.
Presolve time = 0,00 sec. (0,67 ticks)
Tried aggregator 1 time.
Reduced MIP has 275 rows, 300 columns, and 1160 nonzeros.
Reduced MIP has 300 binaries, 0 generals, 0 SOSs, and 0 indicators.
Presolve time = 0,00 sec. (0,92 ticks)
Represolve time = 0,02 sec. (15,23 ticks)
  10843     0      149,7358   300      277,0000       Cuts: 7   405108   30,08%
  10843     0      150,7931   300      277,0000       Cuts: 9   405210   30,08%
  10843     0      151,6613   300      277,0000       Cuts: 7   405295   30,08%
  10843     0      152,0525   300      277,0000      Cuts: 17   405375   30,08%
  10843     0      152,3077   300      277,0000      Cuts: 18   405498   30,08%
  10843     0      153,1968   300      277,0000      Cuts: 91   405602   30,08%
  10843     2      153,1968   299      277,0000      193,6667   405602   30,08%
  13859  2215      244,0321    93      277,0000      193,6667   473577   30,08%
  16271  3867        cutoff            277,0000      201,6199   563613   27,21%
* 19589  5740      integral     0      274,0000      235,5185   713112   14,04%
  25334  7116      267,7973    57      274,0000      248,1682   955559    9,43%
Elapsed time = 4,32 sec. (3805,89 ticks, tree = 6,17 MB, solutions = 7)
  37394   114        cutoff            274,0000      272,5932  1314307    0,51%

Clique cuts applied:  47
Cover cuts applied:  454
Flow cuts applied:  4
Mixed integer rounding cuts applied:  82
Zero-half cuts applied:  10
Gomory fractional cuts applied:  30

Root node processing (before b&c):
  Real time             =    0,09 sec. (49,11 ticks)
Parallel b&c, 16 threads:
  Real time             =    5,84 sec. (4712,41 ticks)
  Sync time (average)   =    1,49 sec.
  Wait time (average)   =    0,02 sec.
                          ------------
Total (root+branch&cut) =    5,93 sec. (4761,52 ticks)
